(set-logic QF_S)
(declare-fun var_0xINPUT_65884 () String)
(assert (and (= (len var_0xINPUT_65884) 0) (= (len var_0xINPUT_65884) 0) (not (= var_0xINPUT_65884 "Example:")) (not (= var_0xINPUT_65884 "ND6MEXdqBD"))))
(check-sat var_0xINPUT_65884)